c 124_4_checker.cnf
c
c field = 124
c formula set type = 4_checker
c
p cnf 5 62
240 
242 
244 
248 
-250 
241 
243 
245 
249 
-251 
242 
244 
248 
250 
-240 
243 
245 
249 
251 
-241 
242 
244 
248 
250 
-252 
243 
245 
249 
251 
-253 
244 
248 
250 
252 
-242 
245 
249 
251 
253 
-243 
244 
248 
250 
252 
-254 
245 
249 
251 
253 
-255 
248 
250 
252 
254 
-244 
249 
251 
253 
255 
-245 
248 
250 
252 
254 
-256 
249 
251 
253 
255 
-257 
126 
156 
186 
216 
-96 
127 
157 
187 
217 
-97 
126 
156 
186 
216 
-276 
127 
157 
187 
217 
-277 
156 
186 
216 
276 
-126 
157 
187 
217 
277 
-127 
156 
186 
216 
276 
-306 
157 
187 
217 
277 
-307 
186 
216 
276 
306 
-156 
187 
217 
277 
307 
-157 
186 
216 
276 
306 
-336 
187 
217 
277 
307 
-337 
216 
276 
306 
336 
-186 
217 
277 
307 
337 
-187 
216 
276 
306 
336 
-366 
217 
277 
307 
337 
-367 
276 
306 
336 
366 
-216 
277 
307 
337 
367 
-217 
276 
306 
336 
366 
-396 
277 
307 
337 
367 
-397 
150 
182 
214 
278 
-310 
151 
183 
215 
279 
-311 
182 
214 
278 
310 
-150 
183 
215 
279 
311 
-151 
182 
214 
278 
310 
-342 
183 
215 
279 
311 
-343 
214 
278 
310 
342 
-182 
215 
279 
311 
343 
-183 
214 
278 
310 
342 
-374 
215 
279 
311 
343 
-375 
278 
310 
342 
374 
-214 
279 
311 
343 
375 
-215 
278 
310 
342 
374 
-406 
279 
311 
343 
375 
-407 
134 
162 
190 
218 
-106 
135 
163 
191 
219 
-107 
134 
162 
190 
218 
-274 
135 
163 
191 
219 
-275 
162 
190 
218 
274 
-134 
163 
191 
219 
275 
-135 
162 
190 
218 
274 
-302 
163 
191 
219 
275 
-303 
190 
218 
274 
302 
-162 
191 
219 
275 
303 
-163 
190 
218 
274 
302 
-330 
191 
219 
275 
303 
-331 
218 
274 
302 
330 
-190 
219 
275 
303 
331 
-191 
